(set-info :Origin "This instance was generated by: BanditFuzz-- an RL fuzzer for SMT solvers" )
(set-info :Author "Joe Scott, Fed Mora, Vijay Ganesh" )
(set-info :Contact "Joe Scott, joseph.scott@uwaterloo.ca")
(set-logic QF_BV)
(declare-const bool_0 Bool)
(declare-const bool_1 Bool)
(declare-const bool_2 Bool)
(declare-const bool_3 Bool)
(declare-const bool_4 Bool)
(declare-const bv_0 (_ BitVec 32))
(declare-const bv_1 (_ BitVec 32))
(declare-const bv_2 (_ BitVec 32))
(declare-const bv_3 (_ BitVec 32))
(declare-const bv_4 (_ BitVec 32))
(assert (bvuge (bvsdiv (bvor bv_2 bv_0) (bvsmod #xd6ed4a7e  #xff313573 )) (bvadd (bvnor #x760a7b89  bv_4) (bvor #x1065f8aa  bv_0))))
(assert (and (bvule (bvadd bv_0 #x77655f68 ) (bvand #xfb2057e0  #x9b8308f0 )) (bvsle (bvlshr #x1fc2e65e  #x981fb5ce ) (bvlshr bv_3 bv_3))))
(assert (and (bvsge (bvudiv #x9cdae219  bv_0) (bvashr #xd43b496c  #xcc2dd68e )) (bvult (bvsmod #x8ea180c5  bv_2) (bvsub #x0a87c57b  bv_4))))
(assert (bvule (bvmul (bvxnor #x09881f9f  bv_1) (bvor #xace55898  bv_4)) (bvudiv (bvxor #xddc05f84  bv_3) (bvor #xaf7a4530  bv_0))))
(assert (bvugt (bvand (bvshl #x3fe7bc08  bv_4) (bvxnor bv_4 bv_0)) (bvsub (bvxnor #x2b6c0ba0  #xc227f389 ) (bvudiv bv_3 bv_3))))
(check-sat)
(exit)
